# SCIP version 4.0.1.3

# feasibility tolerance factor; for checking the feasibility of the best solution
# [type: real, advanced: FALSE, range: [0,1.79769313486232e+308], default: 1]
numerics/checkfeastolfac = 10
